
--- Job Doptimal_MINLP.gms Start 03/20/19 09:40:27 25.1.3 r4e34d435fbd WEX-WEI x86 64bit/MS Windows
GAMS 25.1.3   Copyright (C) 1987-2018 GAMS Development. All rights reserved
Licensee: GAMS Development Corporation, USA              G871201/0000CA-ANY
          Free Demo, +1 202-342-0180, support@gams.com, www.gams.com DC0000
--- Starting compilation
--- Doptimal_MINLP.gms(142) 3 Mb
--- GDXin=C:\Users\AVazquezAlcocer.AD\Dropbox\SDP for Constructing Designs\MINL_PROBLEMS\Mixture\in.gdx
--- Doptimal_MINLP.gms(190) 3 Mb
--- Starting execution: elapsed 0:00:00.005
--- Doptimal_MINLP.gms(174) 4 Mb
--- Generating MINLP model D_opt
--- Doptimal_MINLP.gms(185) 6 Mb
---   59 rows  68 columns  340 non-zeroes
---   490 nl-code  243 nl-non-zeroes
---   7 discrete-columns
--- Doptimal_MINLP.gms(185) 4 Mb
--- Executing SBB: elapsed 0:00:00.028

Simple B&B       25.1.3 r4e34d435fbd Released Oct 30, 2018 WEI x86 64bit/MS Wi

*** Error Cannot open parameter file "C:\Users\AVazquezAlcocer.AD\Dropbox\SDP for Constructing Designs\MINL_PROBLEMS\Mixture\sbb.opt"
*** Error Error code = 2; No such file or directory
 68 columns (7 discrete), 59 rows, 340 nonzeros

COIN-OR Ipopt    25.1.3 r4e34d435fbd Released Oct 30, 2018 WEI x86 64bit/MS Wi

COIN-OR Interior Point Optimizer (Ipopt Library 3.12)
written by A. Waechter.

******************************************************************************
This program contains Ipopt, a library for large-scale nonlinear optimization.
 Ipopt is released as open source code under the Eclipse Public License (EPL).
         For more information visit http://projects.coin-or.org/Ipopt
******************************************************************************

This is Ipopt version 3.12, running with linear solver mumps.

Number of nonzeros in equality constraint Jacobian...:      280
Number of nonzeros in inequality constraint Jacobian.:       60
Number of nonzeros in Lagrangian Hessian.............:      102

Total number of variables............................:       68
                     variables with only lower bounds:        0
                variables with lower and upper bounds:       68
                     variables with only upper bounds:        0
Total number of equality constraints.................:       47
Total number of inequality constraints...............:       12
        inequality constraints with only lower bounds:        9
   inequality constraints with lower and upper bounds:        0
        inequality constraints with only upper bounds:        3

iter    objective    inf_pr   inf_du lg(mu)  ||d||  lg(rg) alpha_du alpha_pr  ls
   0  0.0000000e+00 3.51e+00 6.59e-01   0.0 0.00e+00    -  0.00e+00 0.00e+00   0
   1 -4.8174240e+00 6.47e-01 3.11e+01  -3.9 5.00e+00    -  2.92e-02 9.64e-01h  1
   2 -4.8175161e+00 6.37e-01 9.38e+01   0.0 1.65e+00   2.0 7.81e-02 1.65e-02f  1
   3 -4.7827876e+00 3.01e-01 7.88e+01   0.6 1.47e+00   1.5 2.95e-01 6.33e-01f  1
   4 -5.2429501e+00 6.24e-02 2.23e+02   0.3 5.52e-01   1.9 9.96e-01 8.33e-01h  1
   5 -5.3041979e+00 3.81e-03 3.60e+01  -0.1 1.52e-01   2.4 9.98e-01 1.00e+00f  1
   6 -5.2781081e+00 9.11e-04 3.38e+01  -0.5 3.38e-02   2.8 9.95e-01 1.00e+00f  1
   7 -5.2719295e+00 5.99e-05 3.66e+00  -1.9 6.18e-03   2.3 1.00e+00 1.00e+00h  1
   8 -5.2598267e+00 3.17e-05 8.50e-01  -3.5 1.21e-02   1.8 1.00e+00 1.00e+00f  1
   9 -5.2235483e+00 2.79e-04 8.49e-01  -4.9 3.63e-02   1.4 1.00e+00 1.00e+00f  1
iter    objective    inf_pr   inf_du lg(mu)  ||d||  lg(rg) alpha_du alpha_pr  ls
  10 -5.1156274e+00 2.40e-03 8.42e-01  -6.1 1.08e-01   0.9 1.00e+00 1.00e+00f  1
  11 -4.8685996e+00 1.25e-02 8.25e-01  -5.2 3.15e-01   0.4 1.00e+00 7.83e-01f  1
  12 -3.9980335e+00 1.25e-01 7.55e-01  -4.6 8.71e-01  -0.1 1.00e+00 1.00e+00f  1
  13 -3.5106694e+00 1.37e-01 7.06e-01  -3.1 1.94e+00  -0.5 1.00e+00 2.52e-01f  1
  14 -3.2148044e+00 9.61e-02 6.19e-01  -3.1 6.64e-01  -0.1 9.83e-01 4.45e-01f  1
  15 -2.8999125e+00 9.27e-02 5.60e-01  -2.8 1.39e+00  -0.6 1.00e+00 2.27e-01f  1
  16 -2.7885227e+00 5.46e-02 4.39e-01  -2.2 2.64e-01  -0.2 1.00e+00 4.94e-01f  1
  17 -2.6775624e+00 4.89e-03 2.03e-01  -2.9 1.11e-01   0.3 1.00e+00 1.00e+00h  1
  18 -2.6224611e+00 4.33e-03 1.88e-01  -3.6 2.64e-01  -0.2 1.00e+00 2.38e-01h  1
  19 -2.5473301e+00 1.77e-03 1.59e-01  -4.6 9.80e-02   0.2 1.00e+00 8.57e-01h  1
iter    objective    inf_pr   inf_du lg(mu)  ||d||  lg(rg) alpha_du alpha_pr  ls
  20 -2.4377540e+00 3.21e-03 1.62e-01  -4.7 3.07e-01  -0.3 1.00e+00 4.17e-01f  1
  21 -2.3431715e+00 1.85e-03 1.53e-01  -3.8 1.06e-01   0.2 1.00e+00 9.44e-01h  1
  22 -2.3048406e+00 1.94e-03 3.22e-01  -3.9 3.85e-01  -0.3 1.00e+00 9.95e-02f  1
  23 -2.2476105e+00 1.60e-03 1.51e-01  -4.3 1.19e-01   0.1 1.00e+00 4.80e-01h  1
  24 -2.1837107e+00 2.10e-03 1.76e-01  -3.4 3.54e-01  -0.4 1.00e+00 1.80e-01f  1
  25 -2.0947145e+00 1.60e-03 1.47e-01  -3.9 1.29e-01   0.1 1.00e+00 8.79e-01h  1
  26 -2.0880752e+00 1.56e-03 3.43e-01  -4.3 3.17e-01  -0.4 4.79e-01 2.89e-02h  1
  27 -2.0688965e+00 1.65e-03 2.45e-01  -4.0 1.51e+00  -0.9 4.58e-02 3.26e-02f  1
  28 -2.0241619e+00 1.66e-03 2.44e-01  -4.5 3.62e-01  -0.5 1.00e+00 2.36e-01h  1
  29 -1.9812545e+00 3.66e-03 2.17e-01  -2.9 1.59e+00  -0.9 2.01e-01 8.31e-02f  1
iter    objective    inf_pr   inf_du lg(mu)  ||d||  lg(rg) alpha_du alpha_pr  ls
  30 -1.9746631e+00 3.24e-03 4.85e-01  -3.3 2.32e-01  -0.5 6.16e-01 1.10e-01h  1
  31 -1.9575501e+00 2.67e-03 4.45e-01  -3.8 3.98e-01  -1.0 1.00e+00 1.88e-01h  1
  32 -1.9438814e+00 1.38e-03 2.08e-01  -3.7 1.14e-01  -0.6 1.00e+00 4.94e-01h  1
  33 -1.9432840e+00 1.43e-03 1.51e-01  -3.4 3.00e-01  -1.1 5.72e-01 3.25e-01h  1
  34 -1.9418539e+00 7.22e-04 5.02e-02  -3.5 2.61e-02  -0.6 1.00e+00 5.10e-01h  1
  35 -1.9314491e+00 2.30e-05 3.88e-04  -4.7 1.28e-02    -  1.00e+00 1.00e+00h  1
  36 -1.9305578e+00 2.44e-06 9.35e-05  -6.3 6.13e-03    -  1.00e+00 9.73e-01h  1
  37 -1.9305245e+00 4.48e-10 6.97e-09  -8.3 8.25e-05    -  1.00e+00 1.00e+00h  1

Number of Iterations....: 37

                                   (scaled)                 (unscaled)
Objective...............:   1.9305244523874001e+00   -1.9305244523874001e+00
Dual infeasibility......:   6.9711038051460560e-09    6.9711038051460560e-09
Constraint violation....:   4.4757797468264471e-10    4.4757797468264471e-10
Complementarity.........:   7.5368799539957643e-09   -7.5368799539957643e-09
Overall NLP error.......:   7.5368799539957643e-09    6.9711038051460560e-09


Number of objective function evaluations             = 38
Number of objective gradient evaluations             = 38
Number of equality constraint evaluations            = 38
Number of inequality constraint evaluations          = 38
Number of equality constraint Jacobian evaluations   = 38
Number of inequality constraint Jacobian evaluations = 38
Number of Lagrangian Hessian evaluations             = 37
Total CPU secs in IPOPT (w/o function evaluations)   =      0.105
Total CPU secs in NLP function evaluations           =      0.002

EXIT: Optimal Solution Found.
 Root node solved locally optimal.
   Node  Act. Lev.  Objective  IInf  Best Int.   Best Bound   Gap  (0 secs)
      0     2   0      -1.9305   4            -      -1.9305         -
*     1     0   1      -1.8638   0      -1.8638      -1.8638  0.000000
 Integer solution
 Statistics:
    Iterations    :                61
    NLP Seconds   :          0.171000
    B&B nodes     :                 1
    MIP solution  :         -1.863759 found in node 1
    Best possible :         -1.863759
    Absolute gap  :          0.000000     optca :  0.000001
    Relative gap  :          0.000000     optcr :  0.000010
    Model Status  :                 8
    Solver Status :                 1

 Non convex model!
    # jumps in best bound       :                 1
    Maximum jump in best bound  :          0.066766 in node 1
    # jumps to better objective :                 1
    Maximum jump in objective   :          0.066766 in node 1

 NLP Solver Statistics
    Total Number of NLP solves  :          3
    Total Number of NLP failures:          0
    Details:          ipopt
      # execs             3
      # failures          0
 Terminating.
--- Restarting execution
--- Doptimal_MINLP.gms(185) 2 Mb
--- Reading solution for model D_opt
--- Executing after solve: elapsed 0:00:00.375
--- Doptimal_MINLP.gms(190) 3 Mb
*** Status: Normal completion
--- Job Doptimal_MINLP.gms Stop 03/20/19 09:40:27 elapsed 0:00:00.383
